100
150
99
99
97
97
96
96
96
94
93
93
92
90
90
90
89
88
88
87
83
82
81
81
81
80
79
78
77
77
76
76
75
74
74
74
71
69
69
68
67
67
66
62
59
58
57
56
55
54
54
53
53
52
52
49
49
48
47
46
45
44
43
43
42
42
39
38
37
35
35
34
32
32
31
31
30
29
24
24
21
21
21
20
18
16
13
12
11
9
7
7
7
6
5
5
4
4
2
2
1
1
